[677, 708, 691, 661, 668, 685, 678, 677, 678, 663, 1353, 1337, 1365, 1381, 1372, 1320, 1322, 1337, 1346, 1363, 2660, 2675, 2662, 2669, 2660, 2713, 2632, 2706, 2671, 2682, 5361, 5406, 5362, 5345, 5448, 5378, 5384, 5324, 5335, 5321, 10675, 10679, 10696, 10585, 10617, 10621, 10696, 10677, 10736, 10661]
